ACCURACY = Normal
ALGO = Fast
EDIFF = 0.001
ENCUT = 400.0
IBRION = -1
ISIF = 3
ISMEAR = 2
ISPIN = 2
ISYM = -1
LASPH = True
LCHARGE = False
LMAXMIX = 4
LORBIT = 11
LREAL = Auto
LWAVE = False
MAGMOM = 2*0.0 52*4.0 5*0.0
NELM = 100
NSW = 1
PREC = Normal
SIGMA = 0.05
