K2 Fe52 H2 N3
1.0
   9.5000000000000000    0.0000000000000000    0.0000000000000000
   0.0000000000000000   10.0000000000000000    0.0000000000000000
   0.0000000000000000    0.0000000000000000   19.7500000000000000
K Fe H N
2 52 2 3
direct
   0.8570312700773540    0.3017829179763794    0.3356541017942791 K
   0.4455594514545641    0.0940668404102326    0.2480483477628684 K
   0.5263157894736842    0.5500000000000000    0.3037974683544304 Fe
   0.2618286233199270    0.2319652080535889    0.3037974683544304 Fe
   0.2287144911916632    0.5150911331176758    0.2878691516345060 Fe
   0.1956003465150532    0.7982170581817627    0.2719408349145817 Fe
   0.1479581280758506    0.0591579854488373    0.2321200068992904 Fe
   0.2985747989855315    0.2043855428695679    0.1604425695878041 Fe
   0.1148439833992406    0.3422839164733887    0.2161916901793661 Fe
   0.2654606417605752    0.4875114917755127    0.1445142407960530 Fe
   0.0817298449968037    0.6254098415374756    0.2002633734594418 Fe
   0.2323465096323113    0.7706374168395996    0.1285859240761286 Fe
   0.0486156971831071    0.9085357666015625    0.1843350446676906 Fe
   0.1847042911931088    0.0315783083438873    0.0887651141685776 Fe
   0.3353209495544434    0.1768058657646179    0.0170876632762861 Fe
   0.1515901465164988    0.3147042512893677    0.0728367914127398 Fe
   0.3022068174261796    0.4599318027496338    0.0011593410863152 Fe
   0.1184760018398887    0.5978301525115967    0.0569084686569021 Fe
   0.0853618571632787    0.8809560775756836    0.0409801459010643 Fe
   0.8239170877557052    0.5849088668823242    0.3197257850743547 Fe
   0.7908029556274414    0.8680347442626953    0.3037974683544304 Fe
   0.7431607497365851    0.1289756894111633    0.2639766644827927 Fe
   0.8937774457429585    0.2742032527923584    0.1922992150994796 Fe
   0.7100466176083213    0.4121016025543213    0.2480483477628684 Fe
   0.8606632634213096    0.5573291778564453    0.1763708863077284 Fe
   0.6769324352866725    0.6952275753021241    0.2321200068992904 Fe
   0.8275491312930457    0.8404551506042481    0.1604425695878041 Fe
   0.6438183031584087    0.9783535003662109    0.2161916901793661 Fe
   0.7799068752088044    0.1013960123062134    0.1206217657161664 Fe
   0.9305235210217927    0.2466235637664795    0.0489443072789832 Fe
   0.7467927430805407    0.3845219373703003    0.1046934369244153 Fe
   0.8974094390869141    0.5297494888305664    0.0330159875411022 Fe
   0.7136786109522769    0.6676478862762452    0.0887651141685776 Fe
   0.8642952567652652    0.8128754615783692    0.0170876632762861 Fe
   0.6805644788240132    0.9507738113403321    0.0728367914127398 Fe
   0.0009734869787568    0.1694766879081726    0.1445142407960530 Fe
   0.0377196481353358    0.1418970108032227    0.0011593410863152 Fe
   0.5594299216019479    0.2668740749359131    0.3197257850743547 Fe
   0.4932016573454204    0.8331259727478028    0.2878691516345060 Fe
   0.5961760972675524    0.2392943859100342    0.1763708863077284 Fe
   0.4124452942296078    0.3771927595138550    0.2321200068992904 Fe
   0.5630619651392886    0.5224203109741211    0.1604425695878041 Fe
   0.3793311370046515    0.6603187084197999    0.2161916901793661 Fe
   0.5299477828176398    0.8055462837219238    0.1445142407960530 Fe
   0.3462170048763877    0.9434446334838867    0.2002633734594418 Fe
   0.4823055769267835    0.0664871633052826    0.1046934369244153 Fe
   0.6329222729331568    0.2117147207260132    0.0330159875411022 Fe
   0.4491914447985197    0.3496130943298340    0.0887651141685776 Fe
   0.5998080906115080    0.4948406696319581    0.0170876632762861 Fe
   0.4160773126702559    0.6327390193939210    0.0728367914127398 Fe
   0.5666939584832442    0.7779665946960450    0.0011593410863152 Fe
   0.3829631554452996    0.9158649444580078    0.0569084686569021 Fe
   0.9745337837620784    0.7301363945007324    0.2480483477628684 Fe
   0.9781657771060340    0.9856826782226563    0.0887651141685776 Fe
   0.1698686951085141    0.7030549049377441    0.4725976292091080 H
   0.4300455294157329    0.2311561107635498    0.4720192921312549 H
   0.6321722331799958    0.6057796955108643    0.4621802221370649 N
   0.6174306367572985    0.7140375137329102    0.4473952281324169 N
   0.0569686199489393    0.3438125848770142    0.4289272646360759 N
